c WARNING: for repeatability, setting FPU to use double precision
d VARIABLES            27129        
d CONSTRAINTS          89130        
c ============================[ Problem Statistics ]=============================
c |                                                                             |
c |  Number of variables:         27129                                         |
c |  Number of clauses:           89130                                         |
c |  Parse time:                   0.01 s                                       |
c |                                                                             |
c ============================[ Search Statistics ]==============================
c | Conflicts |          ORIGINAL         |          LEARNT          | Progress |
c |           |    Vars  Clauses Literals |    Limit  Clauses Lit/Cl |          |
c ===============================================================================
c |       100 |   16491    60646   152840 |    22236      100     82 | 39.213 % |
c |       250 |   16491    60646   152840 |    24460      250    104 | 39.213 % |
c |       475 |   16491    60646   152840 |    26906      475     84 | 39.213 % |
c |       812 |   16491    60646   152840 |    29597      812     74 | 39.213 % |
c |      1318 |   16491    60646   152840 |    32556     1318     71 | 39.213 % |
c |      2077 |   16491    60646   152840 |    35812     2077     67 | 39.213 % |
c |      3216 |   16491    60646   152840 |    39393     3216     64 | 39.213 % |
c |      4924 |   16491    60646   152840 |    43333     4924     58 | 39.213 % |
c |      7486 |   16491    60646   152840 |    47666     7486     70 | 39.213 % |
c |     11330 |   16491    60646   152840 |    52433    11330     75 | 39.213 % |
c |     17096 |   16491    60646   152840 |    57676    17096     76 | 39.213 % |
c |     25745 |   16491    60646   152840 |    63444    25745     75 | 39.213 % |
c |     38719 |   16491    60646   152840 |    69788    38719     73 | 39.213 % |
c ===============================================================================
c restarts              : 127
c conflicts             : 43415          (3919 /sec)
c decisions             : 79665          (0.00 % random) (7192 /sec)
c propagations          : 42296960       (3818555 /sec)
c conflict literals     : 3065255        (52.91 % deleted)
d RESTARTS             127
d FAILURES             43415        
d NODES                79665        
d BACKTRACKS           79665        
d PROPAGATIONS         42296960     
d NOGOODSIZE           70.60 
d MEMORY               35.00 
d TIME                 11.0767 

s UNSATISFIABLE
